c generated by sgen
p cnf 49 108
-2 -3 -4 0
-1 -3 -4 0
-1 -2 -4 0
-1 -2 -3 0
-6 -7 -8 0
-5 -7 -8 0
-5 -6 -8 0
-5 -6 -7 0
-10 -11 -12 0
-9 -11 -12 0
-9 -10 -12 0
-9 -10 -11 0
-14 -15 -16 0
-13 -15 -16 0
-13 -14 -16 0
-13 -14 -15 0
-18 -19 -20 0
-17 -19 -20 0
-17 -18 -20 0
-17 -18 -19 0
-22 -23 -24 0
-21 -23 -24 0
-21 -22 -24 0
-21 -22 -23 0
-26 -27 -28 0
-25 -27 -28 0
-25 -26 -28 0
-25 -26 -27 0
-30 -31 -32 0
-29 -31 -32 0
-29 -30 -32 0
-29 -30 -31 0
-34 -35 -36 0
-33 -35 -36 0
-33 -34 -36 0
-33 -34 -35 0
-38 -39 -40 0
-37 -39 -40 0
-37 -38 -40 0
-37 -38 -39 0
-42 -43 -44 0
-41 -43 -44 0
-41 -42 -44 0
-41 -42 -43 0
-45 -46 -47 0
-45 -46 -48 0
-45 -46 -49 0
-45 -47 -48 0
-45 -47 -49 0
-45 -48 -49 0
-46 -47 -48 0
-46 -47 -49 0
-46 -48 -49 0
-47 -48 -49 0
4 45 35 0
32 45 35 0
32 4 35 0
32 4 45 0
9 15 48 0
8 15 48 0
8 9 48 0
8 9 15 0
17 16 22 0
31 16 22 0
31 17 22 0
31 17 16 0
34 20 11 0
47 20 11 0
47 34 11 0
47 34 20 0
7 3 41 0
14 3 41 0
14 7 41 0
14 7 3 0
18 6 30 0
28 6 30 0
28 18 30 0
28 18 6 0
36 5 37 0
21 5 37 0
21 36 37 0
21 36 5 0
23 27 44 0
49 27 44 0
49 23 44 0
49 23 27 0
1 26 12 0
24 26 12 0
24 1 12 0
24 1 26 0
13 33 25 0
39 33 25 0
39 13 25 0
39 13 33 0
10 38 42 0
29 38 42 0
29 10 42 0
29 10 38 0
2 40 43 0
2 40 19 0
2 40 46 0
2 43 19 0
2 43 46 0
2 19 46 0
40 43 19 0
40 43 46 0
40 19 46 0
43 19 46 0
